HFSDDW
15	8	4
0	63	1	59	2	19	3	81
0	60	1	78	2	84	3	59
0	85	1	44	2	48	3	21
0	66	1	80	2	37	3	12
0	51	1	96	2	55	3	59
0	26	1	84	2	84	3	54
0	65	1	24	2	4	3	48
0	37	1	75	2	57	3	38
0	8	1	82	2	30	3	12
0	85	1	52	2	70	3	71
0	71	1	99	2	18	3	56
0	43	1	54	2	33	3	47
0	95	1	77	2	79	3	21
0	90	1	81	2	39	3	78
0	74	1	64	2	16	3	36
LBCmax: 602
RELDUE
-1	632	3	7
-1	404	3	1
-1	314	2	9
-1	245	6	5
-1	700	6	9
-1	244	4	5
-1	258	3	4
-1	686	5	4
-1	486	2	4
-1	335	4	9
-1	337	4	7
-1	780	1	7
-1	342	3	4
-1	685	5	9
-1	711	7	5
DDW
581	683
364	444
311	317
220	270
686	714
239	249
245	271
645	727
481	491
318	352
330	344
710	850
318	366
671	699
675	747
